 Code   833
 Dimension, Fixed Cost
   100        3000
 Facility, Client, Transportation Cost
     1        4           2
     1        9           3
     1       23           2
     1       24           0
     1       34           2
     1       38           4
     1       61           4
     1       70           0
     1       87           2
     1       90           0
     2        1           1
     2       40           0
     2       48           3
     2       61           1
     2       70           1
     2       77           3
     2       86           0
     2       95           3
     2       96           2
     2       99           1
     3        1           2
     3       20           3
     3       45           3
     3       59           3
     3       66           3
     3       72           0
     3       79           2
     3       86           3
     3       90           2
     3       92           3
     4       26           4
     4       43           2
     4       45           1
     4       47           1
     4       60           2
     4       75           3
     4       93           1
     4       96           2
     4       98           3
     4      100           4
     5       20           0
     5       31           1
     5       32           4
     5       33           2
     5       37           1
     5       41           0
     5       50           3
     5       73           4
     5       74           1
     5       84           1
     6        6           1
     6       16           4
     6       18           3
     6       40           1
     6       49           3
     6       51           3
     6       67           1
     6       79           4
     6       81           3
     6       86           1
     7        1           1
     7       13           3
     7       46           1
     7       47           3
     7       51           1
     7       52           4
     7       54           1
     7       70           0
     7       73           4
     7       77           4
     8       22           3
     8       27           0
     8       30           0
     8       41           4
     8       51           0
     8       55           0
     8       63           1
     8       64           2
     8       76           1
     8       82           4
     9        4           2
     9        6           2
     9        7           4
     9        8           3
     9       25           2
     9       35           3
     9       45           4
     9       49           0
     9       74           2
     9       82           1
    10       19           4
    10       22           2
    10       38           0
    10       53           4
    10       56           0
    10       58           0
    10       75           4
    10       87           1
    10       92           3
    10      100           4
    11       17           1
    11       40           4
    11       44           4
    11       57           1
    11       71           2
    11       89           0
    11       94           1
    11       95           2
    11       96           2
    11       97           4
    12       10           2
    12       27           3
    12       29           1
    12       35           0
    12       37           3
    12       39           3
    12       77           2
    12       81           2
    12       90           0
    12       92           1
    13        4           2
    13       15           2
    13       29           4
    13       30           1
    13       32           0
    13       51           2
    13       55           3
    13       77           1
    13       91           1
    13       93           3
    14        2           3
    14       27           3
    14       28           2
    14       30           1
    14       36           3
    14       39           4
    14       56           3
    14       71           1
    14       73           1
    14       86           3
    15        3           3
    15        5           2
    15       14           0
    15       16           3
    15       22           0
    15       47           1
    15       54           0
    15       72           3
    15       84           2
    15       97           2
    16       13           3
    16       20           3
    16       24           4
    16       39           4
    16       49           0
    16       57           3
    16       58           0
    16       69           1
    16       77           3
    16       78           0
    17        1           1
    17        3           2
    17        8           4
    17       35           3
    17       52           2
    17       58           3
    17       59           1
    17       74           1
    17       77           3
    17       83           0
    18        1           1
    18        5           2
    18        6           4
    18       16           3
    18       56           2
    18       64           0
    18       87           4
    18       98           0
    18       99           2
    18      100           2
    19       16           2
    19       23           2
    19       26           1
    19       34           1
    19       40           2
    19       63           3
    19       80           2
    19       81           0
    19       89           2
    19       95           3
    20       33           1
    20       35           0
    20       46           1
    20       53           2
    20       54           0
    20       68           3
    20       76           0
    20       81           4
    20       82           1
    20       93           1
    21        5           2
    21        6           1
    21       24           4
    21       31           2
    21       38           1
    21       44           4
    21       49           0
    21       53           2
    21       60           1
    21       65           4
    22       10           4
    22       12           3
    22       13           2
    22       15           3
    22       34           1
    22       37           2
    22       38           2
    22       39           0
    22       67           3
    22       68           2
    23       20           1
    23       37           2
    23       42           2
    23       45           1
    23       51           1
    23       59           2
    23       66           3
    23       68           1
    23       76           3
    23       79           0
    24        5           2
    24        6           4
    24       32           4
    24       37           0
    24       40           1
    24       41           1
    24       56           1
    24       58           2
    24       61           4
    24       71           0
    25       25           0
    25       26           1
    25       29           0
    25       30           1
    25       40           0
    25       62           2
    25       77           1
    25       93           1
    25       97           1
    25       99           2
    26        3           3
    26        8           3
    26       20           1
    26       30           3
    26       45           4
    26       62           4
    26       67           4
    26       78           2
    26       79           0
    26       80           3
    27       20           0
    27       27           0
    27       34           0
    27       36           0
    27       39           3
    27       50           3
    27       71           4
    27       74           4
    27       78           1
    27       85           2
    28       15           3
    28       21           3
    28       28           2
    28       29           2
    28       40           0
    28       45           1
    28       47           4
    28       63           1
    28       69           3
    28       78           0
    29       19           3
    29       20           2
    29       42           3
    29       50           4
    29       52           4
    29       57           3
    29       59           4
    29       61           3
    29       66           3
    29       74           3
    30        1           0
    30        4           1
    30       11           0
    30       21           0
    30       31           2
    30       63           1
    30       79           1
    30       89           4
    30       92           2
    30       93           1
    31        8           1
    31       15           4
    31       48           0
    31       49           4
    31       62           3
    31       82           2
    31       83           0
    31       90           4
    31       91           3
    31       98           1
    32       10           0
    32       11           4
    32       18           1
    32       21           1
    32       26           3
    32       29           1
    32       35           3
    32       48           1
    32       60           0
    32       62           2
    33        2           3
    33       17           0
    33       22           4
    33       46           0
    33       60           3
    33       74           3
    33       87           4
    33       89           1
    33       97           3
    33       98           2
    34        5           3
    34       12           2
    34       20           2
    34       23           3
    34       41           1
    34       47           1
    34       50           1
    34       63           4
    34       73           2
    34       94           3
    35       15           3
    35       21           4
    35       55           3
    35       62           2
    35       71           4
    35       89           0
    35       93           2
    35       96           4
    35       98           2
    35      100           1
    36        9           1
    36       28           3
    36       33           4
    36       36           2
    36       38           3
    36       41           0
    36       42           1
    36       44           2
    36       69           4
    36       70           4
    37        1           1
    37       11           3
    37       12           4
    37       17           3
    37       22           4
    37       26           1
    37       52           1
    37       62           3
    37       63           1
    37       64           1
    38        1           1
    38        9           1
    38       10           3
    38       12           2
    38       31           2
    38       33           3
    38       36           3
    38       44           3
    38       66           0
    38       93           1
    39        5           3
    39       10           0
    39       11           2
    39       20           2
    39       27           3
    39       28           1
    39       36           4
    39       39           3
    39       67           0
    39       82           2
    40        8           4
    40       12           3
    40       20           1
    40       21           4
    40       22           0
    40       23           4
    40       27           2
    40       28           4
    40       30           4
    40       55           1
    41        3           4
    41       10           0
    41       21           2
    41       56           3
    41       71           4
    41       73           2
    41       74           2
    41       78           3
    41       81           0
    41       96           4
    42       19           2
    42       26           3
    42       34           3
    42       40           0
    42       57           4
    42       68           1
    42       76           2
    42       80           2
    42       85           2
    42       91           3
    43        7           1
    43       14           1
    43       17           3
    43       37           4
    43       54           3
    43       57           3
    43       85           1
    43       87           1
    43       89           1
    43       97           0
    44        3           3
    44        9           2
    44       14           2
    44       18           0
    44       23           3
    44       34           3
    44       38           2
    44       44           2
    44       52           0
    44       61           0
    45        2           0
    45       12           1
    45       21           3
    45       32           4
    45       41           2
    45       54           4
    45       64           0
    45       68           4
    45       72           1
    45       75           2
    46       16           3
    46       33           0
    46       45           4
    46       51           4
    46       61           0
    46       67           2
    46       70           0
    46       76           3
    46       78           0
    46       85           3
    47       10           3
    47       12           4
    47       19           0
    47       24           3
    47       51           4
    47       54           4
    47       60           4
    47       70           0
    47       86           4
    47       90           3
    48       17           0
    48       18           1
    48       30           3
    48       55           2
    48       56           1
    48       65           0
    48       87           3
    48       94           1
    48       95           1
    48       97           3
    49        4           2
    49        6           4
    49       16           2
    49       19           2
    49       51           2
    49       65           2
    49       72           2
    49       75           4
    49       80           1
    49       92           3
    50        7           3
    50        8           3
    50       17           4
    50       23           2
    50       29           3
    50       46           0
    50       62           3
    50       75           4
    50       79           1
    50       91           3
    51        6           3
    51        7           3
    51       15           1
    51       18           1
    51       24           1
    51       32           0
    51       34           1
    51       46           3
    51       51           1
    51       56           1
    52        2           1
    52        6           0
    52       43           1
    52       53           4
    52       61           4
    52       77           3
    52       80           2
    52       82           3
    52       85           1
    52       88           2
    53       11           1
    53       14           1
    53       15           4
    53       25           1
    53       56           2
    53       57           0
    53       59           2
    53       89           1
    53       91           4
    53       95           1
    54        3           4
    54       11           0
    54       15           3
    54       17           4
    54       31           3
    54       32           3
    54       44           2
    54       48           4
    54       53           4
    54       94           2
    55       44           0
    55       54           3
    55       60           1
    55       69           0
    55       73           1
    55       76           3
    55       77           1
    55       80           4
    55       91           1
    55       92           3
    56       19           4
    56       24           1
    56       31           3
    56       37           1
    56       45           0
    56       69           1
    56       78           0
    56       83           3
    56       88           3
    56       90           4
    57        9           3
    57       22           1
    57       28           2
    57       30           2
    57       38           1
    57       42           3
    57       47           1
    57       52           1
    57       57           4
    57       85           3
    58        2           4
    58        7           4
    58       17           1
    58       42           1
    58       45           0
    58       83           3
    58       84           3
    58       85           3
    58       91           2
    58       95           0
    59        2           4
    59        8           3
    59        9           0
    59       16           2
    59       19           4
    59       29           1
    59       31           1
    59       38           1
    59       41           1
    59       47           2
    60        4           0
    60       10           0
    60       25           2
    60       39           0
    60       49           4
    60       57           1
    60       60           0
    60       67           3
    60       73           4
    60       81           3
    61        7           3
    61       35           3
    61       59           3
    61       75           1
    61       81           3
    61       83           1
    61       87           1
    61       90           4
    61       93           4
    61       95           2
    62       14           4
    62       17           3
    62       31           3
    62       36           1
    62       39           4
    62       40           2
    62       42           3
    62       43           4
    62       88           0
    62       92           1
    63        3           0
    63       13           0
    63       26           3
    63       68           2
    63       75           3
    63       76           1
    63       83           3
    63       94           1
    63       99           2
    63      100           0
    64       13           3
    64       14           3
    64       16           2
    64       23           4
    64       27           2
    64       35           1
    64       44           1
    64       63           0
    64       72           3
    64       79           4
    65       10           4
    65       34           1
    65       36           0
    65       41           3
    65       50           3
    65       56           1
    65       82           2
    65       83           1
    65       84           4
    65       94           1
    66        9           4
    66       12           4
    66       13           0
    66       22           4
    66       46           2
    66       67           1
    66       68           1
    66       72           4
    66       79           2
    66       84           1
    67       21           3
    67       44           1
    67       46           2
    67       58           2
    67       61           0
    67       67           2
    67       89           0
    67       91           2
    67       96           1
    67       97           4
    68        1           3
    68        5           3
    68       25           0
    68       48           0
    68       52           2
    68       61           0
    68       69           1
    68       71           4
    68       74           0
    68       75           3
    69        6           2
    69       55           1
    69       69           3
    69       71           4
    69       87           3
    69       88           4
    69       97           4
    69       98           4
    69       99           1
    69      100           1
    70       16           2
    70       23           3
    70       25           1
    70       33           0
    70       53           2
    70       84           0
    70       88           2
    70       93           1
    70       94           1
    70       98           2
    71        2           0
    71       15           0
    71       36           2
    71       37           2
    71       42           4
    71       49           3
    71       54           0
    71       63           2
    71       70           1
    71       72           3
    72       25           0
    72       49           1
    72       51           1
    72       71           3
    72       73           1
    72       76           2
    72       80           3
    72       83           3
    72       84           0
    72       99           1
    73        8           4
    73       18           2
    73       33           4
    73       42           0
    73       53           4
    73       69           3
    73       70           2
    73       88           1
    73       90           0
    73       96           4
    74        7           2
    74        9           3
    74       36           2
    74       42           0
    74       65           1
    74       66           2
    74       67           3
    74       84           3
    74       87           1
    74       88           0
    75        3           4
    75       14           2
    75       15           4
    75       43           4
    75       68           3
    75       81           3
    75       85           0
    75       88           1
    75       92           2
    75       94           4
    76        3           2
    76       13           4
    76       14           1
    76       23           4
    76       24           2
    76       32           0
    76       35           4
    76       43           2
    76       73           2
    76       78           1
    77        4           2
    77       22           2
    77       26           4
    77       63           0
    77       65           2
    77       73           4
    77       74           4
    77       93           4
    77       99           0
    77      100           4
    78        5           3
    78        9           0
    78       25           4
    78       30           1
    78       44           0
    78       56           2
    78       58           3
    78       80           1
    78       85           0
    78       96           3
    79       11           4
    79       28           2
    79       33           4
    79       47           1
    79       50           0
    79       55           0
    79       66           4
    79       83           2
    79       84           1
    79       86           3
    80       13           3
    80       26           0
    80       32           2
    80       39           4
    80       59           0
    80       65           3
    80       72           3
    80       82           0
    80       84           1
    80       91           2
    81       27           1
    81       32           4
    81       35           2
    81       37           3
    81       43           1
    81       59           2
    81       60           3
    81       66           1
    81       89           4
    81       90           3
    82       12           3
    82       42           3
    82       49           4
    82       58           2
    82       59           1
    82       64           0
    82       96           2
    82       98           1
    82       99           4
    82      100           4
    83       13           3
    83       19           1
    83       22           4
    83       23           1
    83       32           0
    83       47           2
    83       48           4
    83       52           2
    83       76           1
    83       79           1
    84        4           1
    84        6           3
    84        8           3
    84       18           4
    84       27           1
    84       35           3
    84       58           3
    84       79           3
    84       82           4
    84       89           0
    85       14           2
    85       41           1
    85       63           2
    85       72           4
    85       77           0
    85       88           2
    85       97           2
    85       98           0
    85       99           1
    85      100           2
    86       24           1
    86       31           1
    86       38           2
    86       43           3
    86       55           0
    86       69           1
    86       86           4
    86       90           3
    86       91           3
    86       99           3
    87        2           2
    87       25           3
    87       29           1
    87       53           2
    87       60           3
    87       62           2
    87       64           2
    87       67           2
    87       83           3
    87       85           2
    88        4           4
    88        8           2
    88       10           3
    88       17           3
    88       19           2
    88       21           0
    88       26           0
    88       45           0
    88       59           3
    88       64           2
    89        2           0
    89       19           1
    89       24           3
    89       29           2
    89       33           1
    89       38           2
    89       48           0
    89       65           4
    89       66           1
    89       88           3
    90       14           4
    90       24           4
    90       28           1
    90       40           0
    90       43           4
    90       53           1
    90       54           2
    90       55           4
    90       58           4
    90       64           2
    91       28           4
    91       60           2
    91       66           3
    91       68           0
    91       74           0
    91       75           0
    91       81           2
    91       86           4
    91       92           3
    91       95           0
    92        5           0
    92        7           0
    92       18           4
    92       31           1
    92       46           0
    92       48           3
    92       52           4
    92       54           0
    92       55           0
    92       57           3
    93        1           3
    93        2           3
    93       36           3
    93       43           4
    93       49           0
    93       61           2
    93       62           4
    93       64           2
    93       68           4
    93       78           3
    94        4           3
    94       16           1
    94       27           0
    94       34           3
    94       48           3
    94       50           3
    94       62           2
    94       70           3
    94       87           0
    94       94           2
    95        9           0
    95       30           0
    95       39           0
    95       65           3
    95       71           1
    95       72           2
    95       81           1
    95       86           4
    95       95           2
    95       97           4
    96        7           2
    96       11           0
    96       18           4
    96       37           0
    96       46           1
    96       48           3
    96       50           2
    96       53           3
    96       58           0
    96       66           0
    97        3           3
    97        7           1
    97       11           2
    97       28           3
    97       41           2
    97       46           0
    97       50           4
    97       75           3
    97       82           3
    97       86           1
    98       29           3
    98       33           1
    98       43           1
    98       64           4
    98       65           1
    98       70           0
    98       76           1
    98       80           3
    98       94           1
    98       96           0
    99       11           3
    99       12           4
    99       13           2
    99       18           1
    99       25           3
    99       34           4
    99       47           3
    99       50           4
    99       52           0
    99       57           3
   100        5           3
   100       21           4
   100       65           3
   100       69           4
   100       78           0
   100       80           3
   100       92           0
   100       95           3
   100       98           2
   100      100           1
